(set-info :status sat)
(declare-const symbol_216 (_ BitVec 32))
(declare-const symbol_222 (_ BitVec 32))
(declare-const symbol_25 (_ BitVec 32))
(declare-const symbol_226 (_ BitVec 32))
(declare-const symbol_78 (_ BitVec 32))
(declare-const symbol_125 (_ BitVec 32))
(declare-const symbol_189 (_ BitVec 32))
(declare-const symbol_198 (_ BitVec 32))
(declare-const symbol_17 (_ BitVec 32))
(declare-const symbol_296 (_ BitVec 32))
(declare-const symbol_193 (_ BitVec 32))
(declare-const symbol_152 (_ BitVec 32))
(declare-const symbol_247 (_ BitVec 32))
(declare-const symbol_224 (_ BitVec 32))
(declare-const symbol_54 (_ BitVec 32))
(declare-const symbol_272 (_ BitVec 32))
(declare-const symbol_106 (_ BitVec 32))
(declare-const symbol_167 (_ BitVec 32))
(declare-const symbol_131 (_ BitVec 32))
(declare-const symbol_130 (_ BitVec 32))
(declare-const symbol_137 (_ BitVec 32))
(declare-const symbol_243 (_ BitVec 32))
(declare-const symbol_171 (_ BitVec 32))
(declare-const symbol_102 (_ BitVec 32))
(declare-const symbol_205 (_ BitVec 32))
(declare-const symbol_26 (_ BitVec 32))
(declare-const symbol_284 (_ BitVec 32))
(declare-const symbol_241 (_ BitVec 32))
(declare-const symbol_29 (_ BitVec 32))
(declare-const symbol_23 (_ BitVec 32))
(declare-const symbol_15 (_ BitVec 32))
(declare-const symbol_104 (_ BitVec 32))
(declare-const symbol_44 (_ BitVec 32))
(declare-const symbol_251 (_ BitVec 32))
(declare-const symbol_229 (_ BitVec 32))
(declare-const symbol_181 (_ BitVec 32))
(declare-const symbol_255 (_ BitVec 32))
(declare-const symbol_231 (_ BitVec 32))
(declare-const symbol_11 (_ BitVec 32))
(declare-const symbol_288 (_ BitVec 32))
(declare-const symbol_265 (_ BitVec 32))
(declare-const symbol_95 (_ BitVec 32))
(declare-const symbol_14 (_ BitVec 32))
(declare-const symbol_46 (_ BitVec 32))
(declare-const symbol_185 (_ BitVec 32))
(declare-const symbol_74 (_ BitVec 32))
(declare-const symbol_79 (_ BitVec 32))
(declare-const symbol_233 (_ BitVec 32))
(declare-const symbol_228 (_ BitVec 32))
(declare-const symbol_50 (_ BitVec 32))
(declare-const symbol_274 (_ BitVec 32))
(declare-const symbol_200 (_ BitVec 32))
(declare-const symbol_66 (_ BitVec 32))
(declare-const symbol_278 (_ BitVec 32))
(declare-const symbol_235 (_ BitVec 32))
(declare-const symbol_21 (_ BitVec 32))
(declare-const symbol_19 (_ BitVec 32))
(declare-const symbol_299 (_ BitVec 32))
(declare-const symbol_218 (_ BitVec 32))
(declare-const symbol_154 (_ BitVec 32))
(declare-const symbol_86 (_ BitVec 32))
(declare-const symbol_151 (_ BitVec 32))
(declare-const symbol_98 (_ BitVec 32))
(declare-const symbol_31 (_ BitVec 32))
(declare-const symbol_239 (_ BitVec 32))
(declare-const symbol_7 (_ BitVec 32))
(declare-const symbol_212 (_ BitVec 32))
(declare-const symbol_194 (_ BitVec 32))
(declare-const symbol_39 (_ BitVec 32))
(declare-const symbol_210 (_ BitVec 32))
(declare-const symbol_159 (_ BitVec 32))
(declare-const symbol_290 (_ BitVec 32))
(declare-const symbol_119 (_ BitVec 32))
(declare-const symbol_76 (_ BitVec 32))
(declare-const symbol_70 (_ BitVec 32))
(declare-const symbol_5 (_ BitVec 32))
(declare-const symbol_187 (_ BitVec 32))
(declare-const symbol_90 (_ BitVec 32))
(declare-const symbol_68 (_ BitVec 32))
(declare-const symbol_163 (_ BitVec 32))
(declare-const symbol_260 (_ BitVec 32))
(declare-const symbol_294 (_ BitVec 32))
(declare-const symbol_175 (_ BitVec 32))
(declare-const symbol_149 (_ BitVec 32))
(declare-const symbol_33 (_ BitVec 32))
(declare-const symbol_253 (_ BitVec 32))
(declare-const symbol_157 (_ BitVec 32))
(declare-const symbol_141 (_ BitVec 32))
(declare-const symbol_204 (_ BitVec 32))
(declare-const symbol_116 (_ BitVec 32))
(declare-const symbol_85 (_ BitVec 32))
(declare-const symbol_220 (_ BitVec 32))
(declare-const symbol_143 (_ BitVec 32))
(declare-const symbol_237 (_ BitVec 32))
(declare-const symbol_135 (_ BitVec 32))
(declare-const symbol_249 (_ BitVec 32))
(declare-const symbol_0 (_ BitVec 32))
(declare-const symbol_139 (_ BitVec 32))
(declare-const symbol_9 (_ BitVec 32))
(declare-const symbol_92 (_ BitVec 32))
(declare-const symbol_161 (_ BitVec 32))
(declare-const symbol_179 (_ BitVec 32))
(declare-const symbol_36 (_ BitVec 32))
(declare-const symbol_64 (_ BitVec 32))
(declare-const symbol_183 (_ BitVec 32))
(declare-const symbol_108 (_ BitVec 32))
(declare-const symbol_270 (_ BitVec 32))
(declare-const symbol_133 (_ BitVec 32))
(declare-const symbol_61 (_ BitVec 32))
(declare-const symbol_3 (_ BitVec 32))
(declare-const symbol_123 (_ BitVec 32))
(declare-const symbol_145 (_ BitVec 32))
(declare-const symbol_280 (_ BitVec 32))
(declare-const symbol_262 (_ BitVec 32))
(declare-const symbol_196 (_ BitVec 32))
(declare-const symbol_100 (_ BitVec 32))
(declare-const symbol_127 (_ BitVec 32))
(declare-const symbol_282 (_ BitVec 32))
(declare-const symbol_207 (_ BitVec 32))
(declare-const symbol_202 (_ BitVec 32))
(declare-const symbol_94 (_ BitVec 32))
(declare-const symbol_72 (_ BitVec 32))
(declare-const symbol_41 (_ BitVec 32))
(declare-const symbol_191 (_ BitVec 32))
(declare-const symbol_83 (_ BitVec 32))
(declare-const symbol_173 (_ BitVec 32))
(declare-const symbol_97 (_ BitVec 32))
(declare-const symbol_177 (_ BitVec 32))
(declare-const symbol_258 (_ BitVec 32))
(declare-const symbol_147 (_ BitVec 32))
(declare-const symbol_266 (_ BitVec 32))
(declare-const symbol_169 (_ BitVec 32))
(declare-const symbol_111 (_ BitVec 32))
(declare-const symbol_88 (_ BitVec 32))
(declare-const symbol_51 (_ BitVec 32))
(declare-const symbol_292 (_ BitVec 32))
(declare-const symbol_286 (_ BitVec 32))
(declare-const symbol_256 (_ BitVec 32))
(declare-const symbol_121 (_ BitVec 32))
(declare-const symbol_276 (_ BitVec 32))
(declare-const symbol_59 (_ BitVec 32))
(declare-const symbol_165 (_ BitVec 32))
(declare-const symbol_56 (_ BitVec 32))
(declare-const symbol_268 (_ BitVec 32))
(declare-const symbol_114 (_ BitVec 32))
(declare-const symbol_245 (_ BitVec 32))
(declare-const symbol_81 (_ BitVec 32))
(declare-const symbol_214 (_ BitVec 32))
(declare-const symbol_48 (_ BitVec 32))
(assert (not (= symbol_299 (_ bv4 32))))
(assert (not (not (= symbol_299 (_ bv2 32)))))
(assert (not (not (= symbol_296 (_ bv2 32)))))
(assert (not (not (= symbol_294 (_ bv2 32)))))
(assert (not (not (= symbol_292 (_ bv2 32)))))
(assert (not (not (= symbol_290 (_ bv2 32)))))
(assert (not (not (= symbol_288 (_ bv2 32)))))
(assert (not (not (= symbol_286 (_ bv2 32)))))
(assert (not (not (= symbol_284 (_ bv2 32)))))
(assert (not (not (= symbol_282 (_ bv2 32)))))
(assert (not (not (= symbol_280 (_ bv2 32)))))
(assert (not (not (= symbol_278 (_ bv2 32)))))
(assert (not (not (= symbol_276 (_ bv2 32)))))
(assert (not (not (= symbol_274 (_ bv2 32)))))
(assert (not (not (= symbol_272 (_ bv2 32)))))
(assert (not (not (= symbol_270 (_ bv2 32)))))
(assert (not (not (= symbol_268 (_ bv2 32)))))
(assert (not (not (= symbol_266 (_ bv2 32)))))
(assert (not (not (= symbol_265 (_ bv2 32)))))
(assert (not (not (= symbol_262 (_ bv2 32)))))
(assert (not (not (= symbol_260 (_ bv2 32)))))
(assert (not (not (= symbol_258 (_ bv2 32)))))
(assert (not (not (= symbol_256 (_ bv2 32)))))
(assert (not (not (= symbol_255 (_ bv2 32)))))
(assert (not (not (= symbol_253 (_ bv2 32)))))
(assert (not (not (= symbol_251 (_ bv2 32)))))
(assert (not (not (= symbol_249 (_ bv2 32)))))
(assert (not (not (= symbol_247 (_ bv2 32)))))
(assert (not (not (= symbol_245 (_ bv2 32)))))
(assert (not (not (= symbol_243 (_ bv2 32)))))
(assert (not (not (= symbol_241 (_ bv2 32)))))
(assert (not (not (= symbol_239 (_ bv2 32)))))
(assert (not (not (= symbol_237 (_ bv2 32)))))
(assert (not (not (= symbol_235 (_ bv2 32)))))
(assert (not (not (= symbol_233 (_ bv2 32)))))
(assert (not (not (= symbol_231 (_ bv2 32)))))
(assert (not (not (= symbol_229 (_ bv2 32)))))
(assert (not (not (= symbol_228 (_ bv2 32)))))
(assert (not (not (= symbol_226 (_ bv2 32)))))
(assert (not (not (= symbol_224 (_ bv2 32)))))
(assert (not (not (= symbol_222 (_ bv2 32)))))
(assert (not (not (= symbol_220 (_ bv2 32)))))
(assert (not (not (= symbol_218 (_ bv2 32)))))
(assert (not (not (= symbol_216 (_ bv2 32)))))
(assert (not (not (= symbol_214 (_ bv2 32)))))
(assert (not (not (= symbol_212 (_ bv2 32)))))
(assert (not (not (= symbol_210 (_ bv2 32)))))
(assert (not (not (= symbol_207 (_ bv2 32)))))
(assert (not (not (= symbol_205 (_ bv2 32)))))
(assert (not (not (= symbol_204 (_ bv2 32)))))
(assert (not (not (= symbol_202 (_ bv2 32)))))
(assert (not (not (= symbol_200 (_ bv2 32)))))
(assert (not (not (= symbol_198 (_ bv2 32)))))
(assert (not (not (= symbol_196 (_ bv2 32)))))
(assert (not (not (= symbol_194 (_ bv2 32)))))
(assert (not (not (= symbol_193 (_ bv2 32)))))
(assert (not (not (= symbol_191 (_ bv2 32)))))
(assert (not (not (= symbol_189 (_ bv2 32)))))
(assert (not (not (= symbol_187 (_ bv2 32)))))
(assert (not (not (= symbol_185 (_ bv2 32)))))
(assert (not (not (= symbol_183 (_ bv2 32)))))
(assert (not (not (= symbol_181 (_ bv2 32)))))
(assert (not (not (= symbol_179 (_ bv2 32)))))
(assert (not (not (= symbol_177 (_ bv2 32)))))
(assert (not (not (= symbol_175 (_ bv2 32)))))
(assert (not (not (= symbol_173 (_ bv2 32)))))
(assert (not (not (= symbol_171 (_ bv2 32)))))
(assert (not (not (= symbol_169 (_ bv2 32)))))
(assert (not (not (= symbol_167 (_ bv2 32)))))
(assert (not (not (= symbol_165 (_ bv2 32)))))
(assert (not (not (= symbol_163 (_ bv2 32)))))
(assert (not (not (= symbol_161 (_ bv2 32)))))
(assert (not (not (= symbol_159 (_ bv2 32)))))
(assert (not (not (= symbol_157 (_ bv2 32)))))
(assert (not (not (= symbol_154 (_ bv2 32)))))
(assert (not (not (= symbol_152 (_ bv2 32)))))
(assert (not (not (= symbol_151 (_ bv2 32)))))
(assert (not (not (= symbol_149 (_ bv2 32)))))
(assert (not (not (= symbol_147 (_ bv2 32)))))
(assert (not (not (= symbol_145 (_ bv2 32)))))
(assert (not (not (= symbol_143 (_ bv2 32)))))
(assert (not (not (= symbol_141 (_ bv2 32)))))
(assert (not (not (= symbol_139 (_ bv2 32)))))
(assert (not (not (= symbol_137 (_ bv2 32)))))
(assert (not (not (= symbol_135 (_ bv2 32)))))
(assert (not (not (= symbol_133 (_ bv2 32)))))
(assert (not (not (= symbol_131 (_ bv2 32)))))
(assert (not (not (= symbol_130 (_ bv2 32)))))
(assert (not (not (= symbol_127 (_ bv2 32)))))
(assert (not (not (= symbol_125 (_ bv2 32)))))
(assert (not (not (= symbol_123 (_ bv2 32)))))
(assert (not (not (= symbol_121 (_ bv2 32)))))
(assert (not (not (= symbol_119 (_ bv2 32)))))
(assert (not (not (= symbol_116 (_ bv2 32)))))
(assert (not (not (= symbol_114 (_ bv2 32)))))
(assert (not (not (= symbol_111 (_ bv2 32)))))
(assert (not (not (= symbol_108 (_ bv2 32)))))
(assert (not (not (= symbol_106 (_ bv2 32)))))
(assert (not (not (= symbol_104 (_ bv2 32)))))
(assert (not (not (= symbol_102 (_ bv2 32)))))
(assert (not (not (= symbol_100 (_ bv2 32)))))
(assert (not (not (= symbol_98 (_ bv2 32)))))
(assert (not (not (= symbol_97 (_ bv2 32)))))
(assert (not (not (= symbol_95 (_ bv2 32)))))
(assert (not (not (= symbol_94 (_ bv2 32)))))
(assert (not (not (= symbol_92 (_ bv2 32)))))
(assert (not (not (= symbol_90 (_ bv2 32)))))
(assert (not (not (= symbol_88 (_ bv2 32)))))
(assert (not (not (= symbol_86 (_ bv2 32)))))
(assert (not (not (= symbol_85 (_ bv2 32)))))
(assert (not (not (= symbol_83 (_ bv2 32)))))
(assert (not (not (= symbol_81 (_ bv2 32)))))
(assert (not (not (= symbol_79 (_ bv2 32)))))
(assert (not (not (= symbol_78 (_ bv2 32)))))
(assert (not (not (= symbol_76 (_ bv2 32)))))
(assert (not (not (= symbol_74 (_ bv2 32)))))
(assert (not (not (= symbol_72 (_ bv2 32)))))
(assert (not (not (= symbol_70 (_ bv2 32)))))
(assert (not (not (= symbol_68 (_ bv2 32)))))
(assert (not (not (= symbol_66 (_ bv2 32)))))
(assert (not (not (= symbol_64 (_ bv2 32)))))
(assert (not (not (= symbol_61 (_ bv2 32)))))
(assert (not (not (= symbol_59 (_ bv2 32)))))
(assert (not (not (= symbol_56 (_ bv2 32)))))
(assert (not (not (= symbol_54 (_ bv2 32)))))
(assert (not (not (= symbol_51 (_ bv2 32)))))
(assert (not (not (= symbol_50 (_ bv2 32)))))
(assert (not (not (= symbol_48 (_ bv2 32)))))
(assert (not (not (= symbol_46 (_ bv2 32)))))
(assert (not (not (= symbol_44 (_ bv2 32)))))
(assert (not (not (= symbol_41 (_ bv2 32)))))
(assert (not (not (= symbol_39 (_ bv2 32)))))
(assert (not (not (= symbol_36 (_ bv2 32)))))
(assert (not (not (= symbol_33 (_ bv2 32)))))
(assert (not (not (= symbol_31 (_ bv2 32)))))
(assert (not (not (= symbol_29 (_ bv2 32)))))
(assert (not (not (= symbol_26 (_ bv2 32)))))
(assert (not (not (= symbol_25 (_ bv2 32)))))
(assert (not (not (= symbol_23 (_ bv2 32)))))
(assert (not (not (= symbol_21 (_ bv2 32)))))
(assert (not (not (= symbol_19 (_ bv2 32)))))
(assert (not (not (= symbol_17 (_ bv2 32)))))
(assert (not (not (= symbol_15 (_ bv2 32)))))
(assert (not (not (= symbol_14 (_ bv2 32)))))
(assert (not (not (= symbol_11 (_ bv2 32)))))
(assert (not (not (= symbol_9 (_ bv2 32)))))
(assert (not (not (= symbol_7 (_ bv2 32)))))
(assert (not (not (= symbol_5 (_ bv2 32)))))
(assert (not (not (= symbol_3 (_ bv2 32)))))
(assert (not (not (= symbol_0 (_ bv12 32)))))
(assert (not (= symbol_0 (_ bv2 32))))
(check-sat)